*HEADING
 Two-instance assembly test
*PART, NAME=BLOCK
*NODE
1, 0., 0., 0.
2, 1., 0., 0.
3, 1., 1., 0.
4, 0., 1., 0.
5, 0., 0., 1.
6, 1., 0., 1.
7, 1., 1., 1.
8, 0., 1., 1.
*ELEMENT, TYPE=C3D8, ELSET=ALL
1, 1,2,3,4,5,6,7,8
*NSET, NSET=BOT
1, 2, 3, 4
*NSET, NSET=TOPF
5, 6, 7, 8
*SOLID SECTION, ELSET=ALL, MATERIAL=STEEL
*END PART
*ASSEMBLY, NAME=ASM
*INSTANCE, NAME=I1, PART=BLOCK
0., 0., 0.
*END INSTANCE
*INSTANCE, NAME=I2, PART=BLOCK
2., 0., 0.
*END INSTANCE
*NSET, NSET=FIX, INSTANCE=I1
1, 2, 3, 4
*NSET, NSET=FIX2, INSTANCE=I2
1, 2, 3, 4
*ELSET, ELSET=LOADED, INSTANCE=I2
1
*END ASSEMBLY
*MATERIAL, NAME=STEEL
*ELASTIC
210000., 0.3
*STEP
*STATIC
*BOUNDARY
FIX, ENCASTRE
FIX2, ENCASTRE
*CLOAD
I2.7, 3, -100.
*NODE FILE
U
*EL FILE
S
*END STEP
