*HEADING
 Composite shell + orthotropic + DSLOAD test
*NODE, NSET=ALLN
1, 0., 0., 0.
2, 1., 0., 0.
3, 1., 1., 0.
4, 0., 1., 0.
5, 0.5, 0., 0.
6, 1., 0.5, 0.
7, 0.5, 1., 0.
8, 0., 0.5, 0.
*ELEMENT, TYPE=S8R, ELSET=PLATE
1, 1,2,3,4,5,6,7,8
*NSET, NSET=EDGE
1, 4, 8
*MATERIAL, NAME=CARBON
*ELASTIC, TYPE=ENGINEERING CONSTANTS
163000., 12000., 12000., 0.3, 0.3, 0.4, 5000., 5000.,
4000.,
*ORIENTATION, NAME=GLOBAL, SYSTEM=RECTANGULAR
1., 0., 0., 0., 1., 0.
*SHELL SECTION, ELSET=PLATE, COMPOSITE, ORIENTATION=GLOBAL
0.125, 3, CARBON, 45.
0.125, 3, CARBON, -45.
0.125, 3, CARBON, 90.
0.125, 3, CARBON, 0.
*SURFACE, NAME=TOP, TYPE=ELEMENT
PLATE, SNEG
*STEP, NAME=Load
*STATIC
*BOUNDARY
EDGE, ENCASTRE
*DSLOAD
TOP, P, 0.01
*OUTPUT, FIELD, VARIABLE=PRESELECT
*NODE OUTPUT
U
*ELEMENT OUTPUT, POSITION=AVERAGED AT NODES
S, E, LE, PE, CF
*END STEP
