*HEADING
 Coverage test for comprehensive keyword/element handling
*PREPRINT, ECHO=NO
*PARAMETER
len = 10.0
*NODE
1, 0., 0., 0.
2, 1., 0., 0.
3, 1., 1., 0.
4, 0., 1., 0.
5, 0., 0., 1.
6, 1., 0., 1.
7, 1., 1., 1.
8, 0., 1., 1.
*ELEMENT, TYPE=C3D8H, ELSET=EHYB
1, 1,2,3,4,5,6,7,8
*ELEMENT, TYPE=SC8R, ELSET=ECONT
2, 1,2,3,4,5,6,7,8
*ELEMENT, TYPE=COH3D8, ELSET=ECOH
3, 1,2,3,4,5,6,7,8
*NSET, NSET=NALL, GENERATE
1, 8, 1
*MATERIAL, NAME=STEEL
*ELASTIC
210000., 0.3
*DENSITY
7.85e-9
*VISCOELASTIC, TIME=PRONY
0.5, 0., 1.0
*CREEP, LAW=STRAIN
1e-10, 5.0, -0.5
*USER MATERIAL, CONSTANTS=2
1.0, 2.0
*CONNECTOR SECTION, ELSET=ECONT
JOIN
*SOLID SECTION, ELSET=EHYB, MATERIAL=STEEL
*INERTIA RELIEF
*STEP
*STATIC
*BOUNDARY, TYPE=VELOCITY
NALL, 1, 3, 0.
*EL FILE
S, MISES, LE, EE, ELSE, PEEQ
*NODE FILE
U, RM, A
*END STEP
